15 3 
1875	1875	1875	
180	162	173	
124	164	169	
549	758	831	
628	772	844	
680	865	882	
72	882	894	
268	368	373	
808	949	974	
543	491	527	
62	234	238	
985	428	439	
145	261	274	
718	120	131	
67	846	846	
434	202	210	
